[VALIDATOR STDOUT]
Type-checking pick-package
...action passes type checking.
Type-checking drop-package
...action passes type checking.
Type-checking move
...action passes type checking.
Checking plan: /home/jfan5/Safety-gen/runs/benchmark/optic/delivery_20260205_143227/delivery/optic_results/delivery_size8_packages1_seed8001.plan
Plan to validate:

Plan size: 29
1:
(move t1 c_3_3 c_3_4)
 
2:
(move t1 c_3_4 c_3_5)
 
3:
(move t1 c_3_5 c_4_5)
 
4:
(move t1 c_4_5 c_4_6)
 
5:
(move t1 c_4_6 c_5_6)
 
6:
(move t1 c_5_6 c_6_6)
 
7:
(move t1 c_6_6 c_6_5)
 
8:
(move t1 c_6_5 c_6_4)
 
9:
(move t1 c_6_4 c_6_3)
 
10:
(move t1 c_6_3 c_6_2)
 
11:
(move t1 c_6_2 c_6_1)
 
12:
(move t1 c_6_1 c_7_1)
 
13:
(pick-package t1 p2 c_7_1)
 
14:
(move t1 c_7_1 c_6_1)
 
15:
(move t1 c_6_1 c_6_2)
 
16:
(move t1 c_6_2 c_6_3)
 
17:
(move t1 c_6_3 c_6_4)
 
18:
(move t1 c_6_4 c_6_5)
 
19:
(move t1 c_6_5 c_5_5)
 
20:
(move t1 c_5_5 c_4_5)
 
21:
(drop-package t1 p2 c_4_5)
 
22:
(move t1 c_4_5 c_4_6)
 
23:
(move t1 c_4_6 c_5_6)
 
24:
(move t1 c_5_6 c_6_6)
 
25:
(pick-package t1 p1 c_6_6)
 
26:
(move t1 c_6_6 c_5_6)
 
27:
(move t1 c_5_6 c_4_6)
 
28:
(move t1 c_4_6 c_4_5)
 
29:
(drop-package t1 p1 c_4_5)
 

Plan Validation details
-----------------------

Checking next happening (time 1)
Deleting (at t1 c_3_3)
Adding (at t1 c_3_4)

Checking next happening (time 2)
Deleting (at t1 c_3_4)
Adding (at t1 c_3_5)

Checking next happening (time 3)
Deleting (at t1 c_3_5)
Adding (at t1 c_4_5)

Checking next happening (time 4)
Deleting (at t1 c_4_5)
Adding (at t1 c_4_6)

Checking next happening (time 5)
Deleting (at t1 c_4_6)
Adding (at t1 c_5_6)

Checking next happening (time 6)
Deleting (at t1 c_5_6)
Adding (at t1 c_6_6)

Checking next happening (time 7)
Deleting (at t1 c_6_6)
Adding (at t1 c_6_5)

Checking next happening (time 8)
Deleting (at t1 c_6_5)
Adding (at t1 c_6_4)

Checking next happening (time 9)
Deleting (at t1 c_6_4)
Adding (at t1 c_6_3)

Checking next happening (time 10)
Deleting (at t1 c_6_3)
Adding (at t1 c_6_2)

Checking next happening (time 11)
Deleting (at t1 c_6_2)
Adding (at t1 c_6_1)

Checking next happening (time 12)
Deleting (at t1 c_6_1)
Adding (at t1 c_7_1)

Checking next happening (time 13)
Deleting (at p2 c_7_1)
Deleting (empty t1)
Adding (carrying t1 p2)

Checking next happening (time 14)
Deleting (at t1 c_7_1)
Adding (at t1 c_6_1)

Checking next happening (time 15)
Deleting (at t1 c_6_1)
Adding (at t1 c_6_2)

Checking next happening (time 16)
Deleting (at t1 c_6_2)
Adding (at t1 c_6_3)

Checking next happening (time 17)
Deleting (at t1 c_6_3)
Adding (at t1 c_6_4)

Checking next happening (time 18)
Deleting (at t1 c_6_4)
Adding (at t1 c_6_5)

Checking next happening (time 19)
Deleting (at t1 c_6_5)
Adding (at t1 c_5_5)

Checking next happening (time 20)
Deleting (at t1 c_5_5)
Adding (at t1 c_4_5)

Checking next happening (time 21)
Deleting (carrying t1 p2)
Adding (empty t1)
Adding (at p2 c_4_5)

Checking next happening (time 22)
Deleting (at t1 c_4_5)
Adding (at t1 c_4_6)

Checking next happening (time 23)
Deleting (at t1 c_4_6)
Adding (at t1 c_5_6)

Checking next happening (time 24)
Deleting (at t1 c_5_6)
Adding (at t1 c_6_6)

Checking next happening (time 25)
Deleting (at p1 c_6_6)
Deleting (empty t1)
Adding (carrying t1 p1)

Checking next happening (time 26)
Deleting (at t1 c_6_6)
Adding (at t1 c_5_6)

Checking next happening (time 27)
Deleting (at t1 c_5_6)
Adding (at t1 c_4_6)

Checking next happening (time 28)
Deleting (at t1 c_4_6)
Adding (at t1 c_4_5)

Checking next happening (time 29)
Deleting (carrying t1 p1)
Adding (empty t1)
Adding (at p1 c_4_5)
Plan executed successfully - checking goal
Plan valid
Final value: 29 

Successful plans:
Value: 29
 /home/jfan5/Safety-gen/runs/benchmark/optic/delivery_20260205_143227/delivery/optic_results/delivery_size8_packages1_seed8001.plan 29
